(set-info :Origin "This instance was generated by: BanditFuzz-- an RL fuzzer for SMT solvers" )
(set-info :Author "Joe Scott, Fed Mora, Vijay Ganesh" )
(set-info :Contact "Joe Scott, joseph.scott@uwaterloo.ca")
(set-logic QF_BV)
(declare-const bool_0 Bool)
(declare-const bool_1 Bool)
(declare-const bool_2 Bool)
(declare-const bool_3 Bool)
(declare-const bool_4 Bool)
(declare-const bv_0 (_ BitVec 32))
(declare-const bv_1 (_ BitVec 32))
(declare-const bv_2 (_ BitVec 32))
(declare-const bv_3 (_ BitVec 32))
(declare-const bv_4 (_ BitVec 32))
(assert (bvult (bvlshr (bvnor bv_2 bv_3) (bvadd bv_2 #x381bf78f )) (bvsdiv (bvor bv_3 #x06f5f10c ) (bvxor #xb1f0278b  bv_0))))
(assert (bvuge (bvor (bvand bv_3 bv_4) (bvxnor bv_1 #xb18d0778 )) (bvmul (bvnand #xa4158cdd  #x11eae57d ) (bvudiv #x497cfb2d  #xd6059162 ))))
(assert (not (bvslt (bvxor bv_4 bv_3) (bvudiv bv_0 #xa79982db ))))
(assert (=> (and (=> true bool_1) (bvuge #x924b41b6  bv_0)) (bvugt (bvsmod #x64f9e666  bv_4) (bvsub bv_3 bv_3))))
(assert (bvslt (bvand (bvsrem #x501f8b76  bv_0) (bvshl bv_2 #x406063b2 )) (bvxnor (bvsrem #x8c174f7e  #x7c2a4884 ) (bvxnor #x2016f671  #x092525df ))))
(check-sat)
(exit)
